NAME : instances/clustered-mixed-tsp/instance-48.tsp
COMMENT : No Comment
TYPE : TSP
DIMENSION: 48
EDGE_WEIGHT_TYPE : EUC_2D
NODE_COORD_SECTION
1 1864 995 
2 631 1605 
3 90 1486 
4 1132 814 
5 720 1609 
6 1537 1966 
7 1955 1086 
8 103 1465 
9 1031 793 
10 571 1572 
11 1004 939 
12 189 1603 
13 369 493 
14 384 573 
15 413 1210 
16 1445 1918 
17 1378 144 
18 1536 160 
19 1962 1035 
20 1013 853 
21 1879 1066 
22 1437 1823 
23 1535 1879 
24 1364 174 
25 1156 811 
26 1587 1933 
27 1116 830 
28 1159 954 
29 1564 1878 
30 1447 39 
31 677 1528 
32 1547 33 
33 990 848 
34 1050 848 
35 1382 68 
36 1120 854 
37 46 1471 
38 53 1462 
39 374 492 
40 710 1546 
41 571 1549 
42 37 1531 
43 195 1608 
44 1496 1954 
45 979 877 
46 1166 884 
47 694 607 
48 419 571 
EOF
